0 7845588
325 7523123
650 7405202
975 7344289
1300 7304072
1625 7270527
1950 7243539
2275 7213769
2600 7178565
2925 7155421
3250 7144353
3575 7133689
3900 7128668
4225 7127207
4550 7124997
4875 7123840
5200 7122741
5525 7121649
5850 7121281
6175 7121239
